

[ChangeItem]	OldItemIndex	OldItemOption	NewItemIndex	NewItemOption	Type
0	1378	0	1378	0	1
1	550	148	0	0	1
2	550	149	0	0	1
3	550	151	0	0	1
4	550	152	0	0	1
5	550	154	0	0	1
6	550	155	0	0	1
7	543	163	0	0	1
8	543	164	0	0	1
9	543	165	0	0	1
10	550	166	0	0	1
11	550	167	0	0	1
12	550	168	0	0	1
13	550	169	0	0	1
14	550	170	0	0	1
15	550	171	0	0	1
16	550	172	0	0	1
17	550	173	0	0	1
18	550	174	0	0	1
19	543	175	0	0	1
20	543	176	0	0	1
21	543	177	0	0	1
22	543	178	0	0	1
23	543	179	0	0	1
24	543	180	0	0	1
25	543	181	0	0	1
26	543	182	0	0	1
27	543	183	0	0	1
28	543	184	0	0	1
29	543	185	0	0	1
30	543	186	0	0	1
31	543	219	0	0	1
32	1367	1324	0	0	1
33	1368	1325	0	0	1
34	1369	1326	0	0	1
35	1370	1327	0	0	1
36	1371	1328	0	0	1
37	1362	0	0	0	1
38	1363	0	0	0	1
39	1364	0	0	0	1
40	1365	0	0	0	1
41	1366	0	0	0	1
42	560	3957	0	0	1
43	560	3956	0	0	1
44	560	3955	0	0	1
45	560	3954	0	0	1
46	560	3953	0	0	1
47	1372	0	0	0	1
48	1187	0	1187	0	3
49	1312	0	1312	0	3
50	1522	0	1522	0	3
51	1523	0	1523	0	3
52	1524	0	1524	0	3
53	1525	0	1525	0	3
54	1526	0	1526	0	3
55	1527	0	1527	0	3
56	1528	0	1528	0	3
57	1529	0	1529	0	3
58	1530	0	1530	0	3
59	1531	0	1531	0	3
60	1532	0	1532	0	3
61	1211	1317	1441	1321	4
62	1212	1320	1441	1321	4
63	692	1	692	61	4
64	692	2	692	61	4
65	692	3	692	61	4
66	692	4	692	61	4
67	692	5	692	62	4
68	692	6	692	62	4
69	692	7	692	62	4
70	692	8	692	62	4
71	692	9	692	63	4
72	692	10	692	63	4
73	692	11	692	63	4
74	692	12	692	63	4
75	692	13	692	64	4
76	692	14	692	64	4
77	692	15	692	64	4
78	692	16	692	64	4
79	692	17	692	65	4
80	692	18	692	65	4
81	692	19	692	65	4
82	692	20	692	65	4
83	692	21	692	66	4
84	692	22	692	66	4
85	692	23	692	66	4
86	692	24	692	66	4
87	692	25	692	67	4
88	692	26	692	67	4
89	692	27	692	67	4
90	692	28	692	67	4
91	692	29	692	68	4
92	692	30	692	68	4
93	692	31	692	68	4
94	692	32	692	68	4
95	692	33	692	69	4
96	692	34	692	69	4
97	692	35	692	69	4
98	692	36	692	69	4
99	692	37	692	70	4
100	692	38	692	70	4
101	692	39	692	70	4
102	692	40	692	70	4
103	692	41	692	71	4
104	692	42	692	71	4
105	692	43	692	71	4
106	692	44	692	71	4
107	692	45	692	72	4
108	692	46	692	72	4
109	692	47	692	72	4
110	692	48	692	72	4
111	692	49	692	73	4
112	692	50	692	73	4
113	692	51	692	73	4
114	692	52	692	73	4
115	692	53	692	74	4
116	692	54	692	74	4
117	692	55	692	74	4
118	692	56	692	74	4
119	692	57	692	75	4
120	692	58	692	75	4
121	692	59	692	75	4
122	692	60	692	75	4
123	601	1241	945	1288	4
124	682	0	682	1	4
125	1619	0	5	50	4
126	5715	0	5	50	4
127	783	1	783	0	4
128	2	536870912	2	0	4
129	657	200	2416	0	4
130	657	400	2417	0	4
131	658	100	2420	0	4
132	658	200	2421	0	4
133	659	100	2424	0	4
134	659	200	2425	0	4
135	660	10	2428	0	4
136	660	15	2429	0	4
137	661	10	2432	0	4
138	661	15	2433	0	4
139	662	3	2436	0	4
140	662	6	2437	0	4
141	664	10	2440	0	4
142	664	20	2441	0	4
143	665	20	2444	0	4
144	665	40	2445	0	4
145	848	600	2417	0	4
146	848	1200	2418	0	4
147	849	300	2421	0	4
148	849	600	2422	0	4
149	850	200	2425	0	4
150	850	400	2426	0	4
151	851	20	2429	0	4
152	851	35	2430	0	4
153	852	20	2433	0	4
154	852	35	2434	0	4
155	647	10	2460	0	4
156	647	15	2461	0	4
157	853	4	2437	0	4
158	853	8	2438	0	4
159	855	15	2441	0	4
160	855	30	2442	0	4
161	856	30	2445	0	4
162	856	60	2446	0	4
163	669	20	2461	0	4
164	669	30	2462	0	4
165	860	1200	2418	0	4
166	860	2400	2419	0	4
167	861	600	2422	0	4
168	861	1200	2423	0	4
169	862	300	2426	0	4
170	862	600	2427	0	4
171	863	30	2430	0	4
172	863	50	2431	0	4
173	864	30	2434	0	4
174	864	50	2435	0	4
175	672	10	2450	0	4
176	672	15	2451	0	4
177	673	10	2454	0	4
178	673	15	2455	0	4
179	674	70	2458	0	4
180	674	90	2459	0	4
181	865	6	2438	0	4
182	865	12	2439	0	4
183	867	20	2442	0	4
184	867	40	2443	0	4
185	868	50	2446	0	4
186	868	100	2447	0	4
187	2652	0	10	0	4
188	2653	0	1	0	4
189	2656	0	1425	0	4
190	2657	0	1426	0	4
191	1268	1	1268	0	4
192	2187	1	2187	0	4
193	2567	1424	6663	1424	4

[ChangeWeapon]	ItemIndex	ItemDuration	TriggerKind	ChangeKind	ChangeDuration
0	1633	12	108129	108129	31
1	1634	12	108130	108130	31
2	1635	12	108131	108131	31
3	1636	12	108132	108132	31
4	1637	12	108133	108133	31
5	1638	12	108134	108134	31
6	1639	12	108135	108135	31
7	1640	12	108136	108136	31
8	1641	12	108137	108137	31
9	1642	12	108138	108138	31
10	1643	12	108139	108139	31
11	1644	12	108140	108140	31
12	1645	12	108141	108141	31
13	1646	12	108142	108142	31
14	1647	12	108143	108143	31
15	1648	12	108144	108144	31
16	1649	12	108145	108145	31
17	1650	12	108146	108146	31
18	1651	12	108147	108147	31
19	1652	12	108148	108148	31
20	1653	12	108149	108149	31
21	1654	12	108150	108150	31
22	1655	12	108151	108151	31
23	1656	12	108152	108152	31
